; benchmark generated from python API
(set-info :status unknown)
(declare-fun S_4 () Real)
(declare-fun A_3 () Real)
(declare-fun S_3 () Real)
(declare-fun S_1 () Real)
(declare-fun L_2 () Real)
(declare-fun S_0 () Real)
(declare-fun A_0 () Real)
(declare-fun L_0 () Real)
(declare-fun L0 () Real)
(declare-fun A_4 () Real)
(declare-fun A_1 () Real)
(declare-fun L_1 () Real)
(declare-fun A_2 () Real)
(declare-fun S_2 () Real)
(assert
 (let (($x8394 (<= (+ L_0 (* 2.0 S_1) (* (- 1.0) S_3) (* (- 1.0) A_0)) 0.0)))
 (let (($x8341 (<= (+ S_1 (* (- 1.0) S_3)) (- 5.0))))
 (let (($x37 (>= L0 0.0)))
 (let (($x2023 (<= (+ L_0 (* (- 1.0) A_0) S_0) 0.0)))
 (let (($x3804 (<= (+ L_2 S_4 (* (- 1.0) A_4)) 0.0)))
 (let ((?x212 (* (- 1.0) A_1)))
 (let ((?x3540 (+ L_1 ?x212 S_1)))
 (let (($x3469 (<= ?x3540 0.0)))
 (let ((?x525 (* (- 1.0) A_3)))
 (let ((?x506 (* (- 1.0) S_3)))
 (let ((?x609 (* (- 1.0) L_0)))
 (let (($x3156 (or (<= (+ L_2 (* (- (/ 1.0 2.0)) S_3) (* (/ 1.0 2.0) S_0) ?x525 S_4) 0.0) (<= (+ ?x609 L_2 S_4 ?x506 A_1 ?x525) 0.0))))
 (let ((?x521 (* (- 1.0) A_4)))
 (let ((?x216 (* (- 1.0) A_2)))
 (let (($x3593 (<= (+ ?x216 L_2 (* (- (/ 1.0 2.0)) S_3) (* (/ 1.0 2.0) S_0) A_3 S_4 ?x521) 0.0)))
 (let (($x64 (= L_2 L_1)))
 (let (($x8746 (or $x64 $x3593 (<= (+ ?x609 ?x216 L_2 S_4 ?x506 A_1 ?x521 A_3) 0.0))))
 (let (($x6276 (<= (+ ?x609 A_1 (* (- 1.0) S_2)) 0.0)))
 (let (($x6730 (or $x64 (<= (+ ?x216 L_2 (* (- 1.0) S_2) S_0 A_3 S_4 ?x521) 0.0) $x6276)))
 (let (($x6063 (or $x64 (<= (+ (* (- (/ 1.0 2.0)) A_2) (* (/ 1.0 2.0) L_2) (* (/ 1.0 2.0) S_0)) (- (/ 15.0 2.0))) (<= (+ ?x609 ?x216 L_2 A_1) (- 10.0)))))
 (let ((?x3519 (* 2.0 A_1)))
 (let ((?x3863 (* 3.0 L_2)))
 (let ((?x4604 (* (- 3.0) A_2)))
 (let ((?x4588 (* (- 2.0) L_0)))
 (let (($x4751 (or $x64 (<= (+ ?x4588 ?x4604 ?x3863 ?x3519 S_4) (- 15.0)) (<= (+ (* (- 2.0) A_2) (* 2.0 L_2) S_0 S_4) (- 10.0)))))
 (let (($x2932 (<= (+ (* (- (/ 1.0 2.0)) A_2) (* (/ 3.0 2.0) L_2) (* (/ 1.0 2.0) S_0) ?x525 S_4) (- (/ 5.0 2.0)))))
 (let (($x9104 (or $x64 $x2932 (<= (+ ?x609 ?x216 (* 2.0 L_2) A_1 ?x525 S_4) (- 5.0)))))
 (let (($x976 (<= (+ (* (- 1.0) L_2) (* (- 1.0) S_4) A_3) 0.0)))
 (let (($x9442 (or $x976 (<= (+ (* (- (/ 1.0 2.0)) L_0) (* (- (/ 1.0 2.0)) S_4) (* (/ 1.0 2.0) A_1)) (- 5.0)) (<= (+ (* (- (/ 1.0 3.0)) S_4) (* (/ 1.0 3.0) S_0)) (- 5.0)))))
 (let ((?x1018 (* (- 1.0) S_0)))
 (let ((?x4192 (* 3.0 S_1)))
 (let ((?x5663 (* 2.0 L_2)))
 (let ((?x9144 (* (- 2.0) A_2)))
 (let (($x8042 (or (<= (+ L_1 ?x212 (* 2.0 S_2) (* (- 1.0) S_4)) 0.0) $x976)))
 (let ((?x2974 (* (/ 1.0 2.0) S_0)))
 (let ((?x11000 (* (/ 3.0 2.0) L_2)))
 (let (($x5234 (or $x64 (<= (+ ?x609 ?x9144 ?x5663 A_1 A_3 S_4 ?x521) (- 5.0)) (<= (+ (* (- (/ 3.0 2.0)) A_2) ?x11000 ?x2974 A_3 S_4 ?x521) (- (/ 5.0 2.0))))))
 (let ((?x8327 (* 2.0 S_0)))
 (let ((?x1380 (* (- 3.0) A_1)))
 (let ((?x1684 (* 3.0 L_1)))
 (let (($x54 (= L_1 L_0)))
 (let (($x8039 (<= (+ (* 4.0 L_1) (* (- 4.0) A_1) S_4 (* 3.0 S_0)) (- 20.0))))
 (let (($x13078 (or $x54 (<= (+ L_1 ?x212 (* (- 2.0) S_2) S_4 ?x8327 ?x521 A_3) 0.0))))
 (let ((?x502 (* (- 1.0) S_4)))
 (let ((?x6372 (* 2.0 L_1)))
 (let ((?x6232 (* 2.0 A_2)))
 (let ((?x2492 (* (- 2.0) L_2)))
 (let ((?x2668 (* (- 2.0) A_1)))
 (let (($x552 (or (<= (+ (* (- 2.0) S_4) (* (- 1.0) S_1) (* 3.0 S_2)) 0.0) $x976)))
 (let (($x2054 (<= (+ L_0 (* (- 2.0) S_4) (* 3.0 S_2) (* (- 1.0) A_0)) 0.0)))
 (let ((?x1040 (* (- 1.0) A_0)))
 (let ((?x6989 (* (- 3.0) L_1)))
 (let ((?x2900 (* 3.0 A_1)))
 (let (($x12922 (or $x64 (<= (+ ?x2900 ?x3863 ?x4604 ?x6989 S_3 (* (- 1.0) S_1)) 0.0))))
 (let (($x927 (<= (+ ?x1380 (* (- 3.0) L_2) (* 3.0 A_2) ?x1684 ?x502 S_0) 0.0)))
 (let (($x4561 (or (<= (+ (* (- (/ 1.0 2.0)) S_3) ?x2974) (- 5.0)) (<= (+ ?x609 ?x506 A_1) (- 5.0)))))
 (let (($x8246 (or $x976 (<= (+ (* (/ 3.0 2.0) S_1) L_0 (* (- (/ 1.0 2.0)) S_4) ?x1040) 0.0))))
 (let (($x9669 (<= (+ L_1 ?x212 (* 2.0 S_1) (* (- 2.0) S_3) S_4 A_3 ?x521) 0.0)))
 (let (($x13327 (or $x54 $x976 (<= (+ ?x212 (* (- 1.0) L_2) A_2 L_1 ?x502 S_2) 0.0))))
 (let (($x12947 (or $x54 (<= (+ ?x212 (* (- 1.0) L_2) A_2 L_1 ?x506 S_1) 0.0))))
 (let (($x12847 (or $x64 (<= (+ ?x3519 ?x5663 ?x9144 (* (- 2.0) L_1) ?x1018 S_1) 0.0))))
 (let (($x13361 (or $x64 (<= (+ L_0 ?x3519 ?x5663 ?x9144 (* (- 2.0) L_1) ?x1040 S_2) 0.0))))
 (let ((?x5228 (* (- 5.0) L_1)))
 (let ((?x945 (* (- 5.0) A_2)))
 (let ((?x1148 (* 5.0 L_2)))
 (let ((?x1132 (* 5.0 A_1)))
 (let ((?x382 (* (- 1.0) S_1)))
 (let ((?x2028 (* (- 4.0) L_1)))
 (let ((?x6609 (* (- 4.0) A_2)))
 (let ((?x736 (* 4.0 L_2)))
 (let ((?x1114 (* 4.0 A_1)))
 (let (($x13209 (or $x64 (<= (+ ?x2900 ?x3863 ?x4604 ?x6989 S_4 (* (- 1.0) S_2)) 0.0))))
 (let (($x5489 (or $x64 (<= (+ ?x5663 A_1 ?x216 (* (- 1.0) L_1) S_4 ?x525) 0.0))))
 (let (($x1763 (<= (+ ?x212 (* (- 1.0) L_2) A_2 L_1 (* (- 1.0) S_2) S_0) 0.0)))
 (let (($x1472 (not (= L_1 L_2))))
 (let (($x124 (>= A_3 A_2)))
 (let (($x7124 (or (<= (+ (* (- 2.0) S_3) S_4 S_0) 0.0) (<= (+ ?x4588 S_4 (* (- 3.0) S_3) ?x3519) 0.0))))
 (let (($x8299 (or $x64 (<= (+ ?x9144 ?x5663 A_1 (* (- 1.0) L_1) S_4 ?x521 A_3) 0.0))))
 (let (($x6634 (or $x64 (<= (+ ?x3519 ?x5663 ?x9144 (* (- 2.0) L_1) ?x506 S_4) 0.0))))
 (let (($x4871 (or $x64 (<= (+ A_1 L_2 ?x216 (* (- 1.0) L_1) L_0 ?x1040 S_1) 0.0))))
 (let (($x6753 (<= (+ ?x3519 ?x5663 ?x9144 (* (- 2.0) L_1) S_3 (* (- 1.0) S_2)) 0.0)))
 (let (($x9077 (or $x64 (<= (+ ?x3519 ?x5663 ?x9144 (* (- 2.0) L_1) S_2 ?x382) 0.0))))
 (let (($x9713 (or $x54 (<= ?x3540 (- 5.0)))))
 (let (($x1057 (not (<= 0.0 (+ (* (- 1.0) L_1) L_0)))))
 (let (($x1701 (or $x54 $x1057)))
 (let (($x1267 (or $x64 (not (<= 0.0 (+ L_1 (* (- 1.0) L_2)))))))
 (let (($x9162 (or $x64 (<= (+ ?x216 L_2 S_2) (- 5.0)))))
 (let (($x125 (>= A_4 A_3)))
 (let (($x774 (<= (+ A_1 (* (- 1.0) L_1)) S_3)))
 (let (($x122 (>= A_1 A_0)))
 (let (($x904 (not (<= (+ A_2 (* (- 1.0) L_2)) S_3))))
 (let (($x117 (>= S_3 S_2)))
 (let (($x114 (>= S_2 S_1)))
 (let (($x111 (>= S_1 S_0)))
 (let (($x36 (>= L_0 L0)))
 (let (($x120 (>= S_4 S_3)))
 (and $x120 $x36 $x111 $x114 $x117 $x904 $x122 $x774 $x125 $x9162 $x1267 $x1701 $x9713 $x9077 (or $x64 $x6753) $x4871 $x6634 (or $x64 (<= (+ ?x1114 ?x736 ?x6609 ?x2028 S_3 ?x1018) 0.0)) $x8299 (or (<= (+ S_0 (* (- 1.0) S_2)) (- 5.0)) $x6276) (or (<= (+ (* 3.0 S_0) (* (- 4.0) S_2) S_4) 0.0) $x6276) (or $x54 (<= (+ L_1 ?x212 ?x506 S_4 S_0 A_3 ?x521) 0.0)) $x7124 $x124 (or $x54 $x1472 (<= (+ L_1 ?x2668 A_2 S_0) (- 5.0))) (or $x64 (>= (+ ?x212 (* (- 1.0) L_2) A_2 L_1) 5.0)) (or $x64 (<= (+ ?x4604 ?x3863 ?x3519 (* (- 2.0) L_1) S_4) (- 5.0))) (or $x54 $x1763) (or $x54 (<= (+ ?x6372 ?x2668 (* (- 1.0) L_2) A_2 S_0) (- 5.0))) $x5489 (or $x54 (<= (+ ?x2668 ?x2492 ?x6232 ?x6372 ?x506 S_0) 0.0)) (or $x64 (<= (+ ?x1114 ?x736 ?x6609 ?x2028 S_4 ?x1040 L_0) 0.0)) $x13209 (or $x64 (<= (+ ?x1114 ?x736 ?x6609 ?x2028 S_4 ?x382) 0.0)) (or $x64 (<= (+ ?x1132 ?x1148 ?x945 ?x5228 S_4 ?x1018) 0.0)) $x13361 $x12847 (or $x64 (<= (+ ?x2900 ?x3863 ?x4604 ?x6989 S_2 ?x1018) 0.0)) $x12947 (or $x54 (<= (+ L_1 ?x212 S_0) (- 10.0))) (or $x54 (<= (+ ?x6372 ?x2668 S_2 S_0) (- 10.0))) $x13327 (or $x64 (<= (+ ?x216 L_2 S_1) (- 10.0))) (or $x64 (<= (+ ?x216 ?x5663 S_1 ?x525 S_4) (- 5.0))) (or $x64 (<= (+ ?x4604 ?x3863 (* 2.0 S_1) S_4) (- 15.0))) (or $x64 (<= (+ L_0 ?x216 L_2 (* 2.0 S_1) ?x1040) (- 5.0))) (or $x64 (<= (+ ?x9144 ?x5663 S_1 A_3 S_4 ?x521) (- 5.0))) (or $x54 $x9669) $x8246 (or (<= (+ (* (/ 1.0 2.0) S_1) (* (- (/ 1.0 2.0)) S_4)) (- 5.0)) $x976) (or $x976 (<= (+ (* 2.0 S_1) ?x502 ?x1018) 0.0)) $x4561 (or $x54 $x927 $x976) $x12922 (or $x64 (<= (+ ?x2900 ?x3863 ?x4604 ?x6989 L_0 S_3 ?x1040) 0.0)) (or $x976 $x2054) $x552 (or (<= (+ ?x502 S_2) (- 5.0)) $x976) (or $x54 (<= (+ L_1 ?x212 (* 2.0 S_2) ?x502) (- 5.0)) $x976) (or $x54 $x976 (<= (+ ?x2668 ?x2492 ?x6232 ?x6372 ?x502 S_1) 0.0)) (or $x6276 (<= (+ ?x8327 S_3 (* (- 3.0) S_2)) 0.0)) (or (<= (+ (* (- 3.0) S_4) (* 4.0 S_2) ?x1018) 0.0) $x976) $x13078 (or $x54 $x8039) (or $x54 (<= (+ ?x6372 ?x212 S_4 S_0 ?x525) (- 5.0))) (or $x54 (<= (+ ?x1684 ?x1380 S_4 ?x8327 A_3 ?x521) (- 10.0))) $x5234 (or $x64 (<= (+ ?x216 L_2 S_1 ?x506 A_3 S_4 ?x521) 0.0)) $x8042 (or $x64 (<= (+ ?x9144 ?x5663 ?x4192 ?x1018) (- 10.0))) $x9442 $x9104 $x4751 $x6063 (or (<= (+ L_2 (* (- 1.0) S_2) S_0 ?x525 S_4) 0.0) $x6276) $x6730 $x8746 $x3156 $x3469 $x3804 $x2023 $x37 $x8341 (<= (+ S_4 (* 2.0 S_1) (* (- 3.0) S_3)) 0.0) $x8394 (<= (+ ?x4192 (* (- 2.0) S_3) ?x1018) 0.0) (<= (+ L_2 S_1 ?x506 ?x525 S_4) 0.0)))))))))))))))))))))))))))))))))))))))))))))))))))))))))))))))))))))))))))))))))))))))))))))))))))
(check-sat)
